DATASET = "thpack2";
INSTANCE = "046";

WIDTH = 233;
HEIGHT = 220;
LENGTH = 587;

NO_OF_SHAPES = 5;
size = [|
  86,58,36 |
  71,69,22 |
  108,78,54 |
  104,58,57 |
  96,65,58 |
|];

verticality = [|
  0,1,1 |
  0,0,1 |
  0,1,1 |
  1,1,1 |
  1,1,1 |
|];

box_count = [
  18,
  20,
  22,
  19,
  22,
];
